ZnO\(2)                                 
   1.00000000000000     
     3.1984701679345400    0.0000000000000000   -0.0000000000000000
    -1.5992350839672700    2.7699564186822894   -0.0000000000000000
    -0.0000000000000000   -0.0000000000000000    5.3031822935140935
   B    P 
     2     2
Direct
     0.3333333333333357    0.6666666666666643    0.0003663460186666
     0.6666666666666643    0.3333333333333357    0.5003663460186667
     0.3333333333333357    0.6666666666666643    0.3746336539813334
     0.6666666666666643    0.3333333333333357    0.8746336539813333
 
  0.00000000E+00  0.00000000E+00  0.00000000E+00
  0.00000000E+00  0.00000000E+00  0.00000000E+00
  0.00000000E+00  0.00000000E+00  0.00000000E+00
  0.00000000E+00  0.00000000E+00  0.00000000E+00
